data;


param d:= 100;
param r:=5;
param p:=0.740000;
param M:=1000;
param U:=
         1         1       -3.843882e-01
         2         1        4.070268e-01
         3         1       -6.914664e-01
         4         1       -1.017224e+00
         5         1        1.292412e-01
         6         1       -7.757310e-01
         7         1        7.094239e-02
         8         1        1.539780e+00
         9         1        4.250885e-01
        10         1        3.660800e-01
        11         1       -1.700747e+00
        12         1        1.033826e+00
        13         1        4.653400e-01
        14         1       -7.153503e-01
        15         1        8.145575e-01
        16         1        1.418886e+00
        17         1       -4.957335e-01
        18         1       -2.616168e-02
        19         1       -1.024806e+00
        20         1        1.009170e+00
        21         1        9.324718e-01
        22         1       -1.110808e-01
        23         1       -2.717264e-01
        24         1        1.572779e+00
        25         1       -5.270916e-01
        26         1        9.811023e-01
        27         1        2.002038e-01
        28         1        9.612978e-01
        29         1       -2.402683e-01
        30         1        2.835519e-01
        31         1       -9.769512e-01
        32         1       -1.349844e-01
        33         1        1.580119e+00
        34         1       -5.025407e-01
        35         1        1.940193e+00
        36         1       -1.294493e+00
        37         1       -1.290042e+00
        38         1        1.590386e+00
        39         1        3.114336e-01
        40         1        8.235060e-01
        41         1       -5.560474e-01
        42         1       -1.221069e-01
        43         1        1.123828e+00
        44         1       -1.341530e-01
        45         1        8.369283e-02
        46         1       -1.491019e+00
        47         1        7.126933e-01
        48         1       -8.472991e-01
        49         1       -9.390129e-01
        50         1        1.006905e+00
        51         1        1.332683e-01
        52         1        5.657775e-01
        53         1       -4.406295e-01
        54         1       -2.139410e+00
        55         1        1.280176e-01
        56         1        5.718998e-01
        57         1       -7.113301e-01
        58         1        5.541221e-01
        59         1       -1.228967e+00
        60         1        3.608270e-01
        61         1        1.446283e+00
        62         1       -9.064463e-01
        63         1       -9.909871e-01
        64         1        2.846047e-01
        65         1        7.325464e-01
        66         1       -9.691628e-01
        67         1       -1.278654e+00
        68         1        5.852938e-01
        69         1       -1.188245e+00
        70         1        6.510120e-01
        71         1       -5.406080e-01
        72         1        1.527575e+00
        73         1        4.221489e-01
        74         1       -1.077933e+00
        75         1       -3.173651e+00
        76         1       -1.272589e+00
        77         1        4.758937e-02
        78         1        1.641251e-01
        79         1       -5.535470e-01
        80         1        6.143324e-01
        81         1        1.033810e+00
        82         1        1.654883e+00
        83         1       -1.474626e+00
        84         1        6.640029e-01
        85         1        1.155080e+00
        86         1        6.152544e-01
        87         1        4.432327e-01
        88         1       -3.803378e-01
        89         1        1.674087e-02
        90         1        1.048011e+00
        91         1       -7.490576e-01
        92         1       -1.532056e+00
        93         1       -1.108389e+00
        94         1       -1.087933e+00
        95         1       -1.364527e-01
        96         1        9.896087e-01
        97         1        4.464373e-02
        98         1        7.839915e-01
        99         1        1.946814e-01
       100         1       -5.332752e-01
         1         2        4.416126e-01
         2         2        4.589910e-02
         3         2       -9.376133e-01
         4         2        1.568069e+00
         5         2        1.147144e-01
         6         2       -1.777365e+00
         7         2       -1.691351e-02
         8         2        1.812451e+00
         9         2        1.827626e+00
        10         2        9.014295e-01
        11         2       -2.846294e-01
        12         2       -1.055597e+00
        13         2        5.712061e-01
        14         2       -8.872997e-01
        15         2       -6.501238e-01
        16         2        8.337977e-01
        17         2       -1.479328e+00
        18         2       -9.817537e-01
        19         2        4.023278e-01
        20         2        9.173791e-01
        21         2        2.474555e-01
        22         2       -5.895567e-01
        23         2        7.029257e-01
        24         2       -2.287989e-01
        25         2        2.777399e-01
        26         2        1.337622e+00
        27         2       -4.832964e-01
        28         2        1.040583e+00
        29         2       -9.662040e-01
        30         2       -4.749519e-01
        31         2       -8.759168e-02
        32         2       -1.098253e+00
        33         2        3.432538e-01
        34         2       -4.437880e-01
        35         2       -1.016027e+00
        36         2        7.483792e-02
        37         2       -1.246297e+00
        38         2       -5.786358e-01
        39         2        5.080331e-01
        40         2       -1.350249e+00
        41         2        4.748841e-01
        42         2       -1.165449e-01
        43         2       -1.347263e+00
        44         2        6.078460e-01
        45         2        8.193370e-01
        46         2       -7.055296e-01
        47         2        6.656138e-01
        48         2        1.846299e+00
        49         2       -5.281770e-02
        50         2       -9.334514e-01
        51         2        7.783466e-01
        52         2       -1.038459e+00
        53         2        1.632053e+00
        54         2        7.641548e-01
        55         2       -7.106305e-01
        56         2       -2.716222e-01
        57         2        1.508981e+00
        58         2       -5.059635e-01
        59         2        3.391609e-02
        60         2       -3.319011e-02
        61         2        8.690327e-01
        62         2        9.076784e-01
        63         2        2.014604e-01
        64         2       -6.779272e-01
        65         2        4.090701e-01
        66         2        1.106693e+00
        67         2       -6.891432e-02
        68         2       -8.090225e-01
        69         2       -2.031063e+00
        70         2       -6.034100e-01
        71         2        3.449596e-02
        72         2        7.519114e-02
        73         2       -2.277009e-01
        74         2        9.491494e-01
        75         2        5.139569e-01
        76         2        8.927732e-01
        77         2       -1.625700e-02
        78         2        4.187635e-02
        79         2        7.803006e-02
        80         2       -1.132132e+00
        81         2        9.881265e-01
        82         2       -1.154439e-01
        83         2       -5.602693e-01
        84         2       -4.152635e-01
        85         2       -8.702493e-01
        86         2        1.454043e+00
        87         2        6.594492e-01
        88         2        1.192289e+00
        89         2       -5.604868e-02
        90         2        4.473737e-01
        91         2        7.119102e-01
        92         2       -4.049518e-01
        93         2        1.027965e+00
        94         2        1.039275e+00
        95         2       -1.177426e+00
        96         2       -1.138824e+00
        97         2       -8.502991e-01
        98         2       -1.685096e-01
        99         2        1.322815e-01
       100         2        1.374693e+00
         1         3        3.653706e-01
         2         3        8.119726e-01
         3         3       -3.344046e-01
         4         3        1.802967e+00
         5         3       -4.263490e-01
         6         3        8.618191e-01
         7         3        6.302235e-01
         8         3        4.037185e-01
         9         3       -1.173121e-01
        10         3       -5.258726e-01
        11         3       -1.399064e-01
        12         3       -1.618027e-02
        13         3        4.448050e-01
        14         3        4.276667e-01
        15         3        8.225288e-01
        16         3        4.138891e-01
        17         3       -1.258889e+00
        18         3        1.272654e-01
        19         3       -1.396787e+00
        20         3       -1.281251e-01
        21         3        4.196468e-02
        22         3        8.641322e-01
        23         3       -1.871528e+00
        24         3        1.183383e+00
        25         3        8.014561e-01
        26         3       -4.694863e-01
        27         3        5.942777e-01
        28         3        3.716616e-01
        29         3        4.670733e-01
        30         3        7.664742e-01
        31         3       -1.750489e-01
        32         3       -1.099649e+00
        33         3        3.394853e-01
        34         3        9.464856e-02
        35         3       -1.600277e+00
        36         3        7.025973e-01
        37         3        6.469254e-01
        38         3       -7.332117e-01
        39         3        4.960662e-01
        40         3       -1.879174e+00
        41         3       -1.329443e+00
        42         3        8.261573e-01
        43         3       -2.028607e-01
        44         3       -7.685834e-01
        45         3       -5.285473e-01
        46         3        4.387176e-01
        47         3        6.824062e-01
        48         3       -6.072300e-01
        49         3       -2.235075e+00
        50         3        8.721976e-01
        51         3       -2.548396e+00
        52         3        6.263061e-02
        53         3       -4.544268e-01
        54         3       -6.660314e-01
        55         3        8.436639e-03
        56         3       -1.158668e+00
        57         3       -1.709152e+00
        58         3       -7.964924e-01
        59         3        8.137540e-01
        60         3        1.977404e-01
        61         3        9.677339e-01
        62         3       -7.769195e-01
        63         3       -1.364651e+00
        64         3        3.785683e-01
        65         3       -8.199690e-01
        66         3        1.076544e+00
        67         3        3.500799e-01
        68         3        7.194360e-01
        69         3        1.727352e-01
        70         3       -2.780596e-02
        71         3       -1.956593e-01
        72         3       -6.239893e-01
        73         3        1.137833e-01
        74         3        1.378015e+00
        75         3        1.074934e+00
        76         3        2.147716e+00
        77         3       -8.090895e-01
        78         3       -8.406475e-01
        79         3       -9.543995e-01
        80         3        1.737175e+00
        81         3       -5.746006e-01
        82         3        3.878806e-01
        83         3        8.147376e-01
        84         3        1.181071e+00
        85         3        1.728767e+00
        86         3        1.460908e+00
        87         3       -3.365631e-01
        88         3       -3.075356e-01
        89         3        4.783499e-02
        90         3        1.354026e-01
        91         3       -1.025037e+00
        92         3       -4.430428e-03
        93         3       -1.152325e+00
        94         3        2.997711e+00
        95         3       -4.105140e-01
        96         3       -1.304024e+00
        97         3       -4.708841e-01
        98         3        6.863689e-01
        99         3       -2.245294e+00
       100         3        4.522056e-01
         1         4        8.168517e-01
         2         4        1.363120e-01
         3         4       -7.882199e-01
         4         4        5.933935e-01
         5         4        9.998316e-01
         6         4       -1.190376e+00
         7         4        3.572593e-01
         8         4       -4.212788e-01
         9         4        9.352730e-01
        10         4        5.081812e-01
        11         4        2.464071e-01
        12         4        1.664989e-01
        13         4        2.445560e+00
        14         4        1.095447e+00
        15         4        2.203827e-02
        16         4        2.479809e+00
        17         4       -5.970951e-01
        18         4       -6.909562e-01
        19         4        5.958626e-01
        20         4       -2.181683e-01
        21         4       -6.400527e-02
        22         4        1.342297e+00
        23         4       -1.449667e-01
        24         4        5.645537e-01
        25         4       -8.793762e-02
        26         4       -1.098018e+00
        27         4       -9.639248e-01
        28         4        1.650734e-01
        29         4       -2.725513e-01
        30         4       -4.710277e-01
        31         4       -1.281072e+00
        32         4        7.182579e-01
        33         4        4.267205e-01
        34         4       -9.061535e-02
        35         4       -1.826586e-01
        36         4        1.692739e+00
        37         4       -2.282621e+00
        38         4        2.242833e-01
        39         4        1.277147e+00
        40         4        6.804956e-01
        41         4        5.583408e-01
        42         4        1.278031e-01
        43         4        1.408659e-01
        44         4       -1.027889e+00
        45         4        1.612363e+00
        46         4        7.954912e-01
        47         4       -1.165010e+00
        48         4        1.362292e+00
        49         4       -2.487489e+00
        50         4        3.368140e-01
        51         4       -5.720399e-01
        52         4       -1.451447e+00
        53         4       -7.893954e-01
        54         4        1.197488e+00
        55         4        3.932862e-01
        56         4       -8.013874e-01
        57         4       -1.594746e-01
        58         4       -1.201324e+00
        59         4        1.011970e+00
        60         4       -3.117774e-01
        61         4       -1.248816e+00
        62         4       -7.382308e-01
        63         4        3.029770e-01
        64         4       -1.573719e+00
        65         4       -1.758347e-01
        66         4        4.302040e-01
        67         4        3.566558e-01
        68         4       -8.598480e-01
        69         4        2.444631e-01
        70         4       -1.320352e+00
        71         4       -3.407641e-01
        72         4        8.325301e-01
        73         4       -3.817046e-01
        74         4       -4.655477e-01
        75         4        5.771541e-01
        76         4        7.279042e-01
        77         4       -2.472830e+00
        78         4        6.569665e-01
        79         4        4.191126e-01
        80         4       -1.188005e+00
        81         4        2.524618e-01
        82         4       -8.986471e-01
        83         4        1.674735e+00
        84         4       -1.543116e+00
        85         4       -8.443230e-02
        86         4        1.181570e+00
        87         4       -1.677651e-01
        88         4        2.203696e-01
        89         4       -6.678929e-01
        90         4       -7.317643e-01
        91         4       -5.429730e-01
        92         4        1.106984e-01
        93         4       -7.949942e-01
        94         4       -1.242931e+00
        95         4       -1.449880e+00
        96         4       -8.383687e-01
        97         4        1.780415e-02
        98         4        8.148403e-01
        99         4       -3.790660e-01
       100         4       -3.962538e-01
         1         5        1.787085e+00
         2         5       -5.439613e-01
         3         5        1.134211e+00
         4         5       -1.482288e-01
         5         5       -3.195120e-01
         6         5       -3.323541e-01
         7         5       -1.093173e-02
         8         5        4.299045e-01
         9         5       -8.736624e-01
        10         5        2.653995e-01
        11         5        3.377491e-01
        12         5       -1.906400e-01
        13         5       -5.774124e-01
        14         5        1.629291e+00
        15         5       -1.448090e+00
        16         5        2.590268e+00
        17         5       -1.408921e+00
        18         5        1.169511e+00
        19         5       -4.167279e-01
        20         5       -6.965726e-02
        21         5       -1.890819e+00
        22         5        1.155206e-01
        23         5       -1.309779e-01
        24         5        1.075285e+00
        25         5       -1.507827e+00
        26         5        1.596297e+00
        27         5       -2.084119e+00
        28         5       -2.696107e-01
        29         5        2.360521e+00
        30         5       -7.850962e-01
        31         5        1.899443e-01
        32         5        2.332848e-01
        33         5        7.358287e-01
        34         5        3.026292e-01
        35         5        5.932152e-01
        36         5        5.245736e-01
        37         5        3.019465e-01
        38         5       -8.101271e-01
        39         5        5.650900e-03
        40         5        3.552696e-01
        41         5       -6.442927e-01
        42         5       -2.004559e-01
        43         5        6.204800e-01
        44         5       -1.201208e+00
        45         5       -1.370552e+00
        46         5        1.377034e+00
        47         5        7.282535e-01
        48         5        1.234344e+00
        49         5        2.967914e-01
        50         5       -9.427707e-01
        51         5        6.055760e-01
        52         5        2.669809e-01
        53         5        1.506528e+00
        54         5        4.570299e-01
        55         5        1.164694e+00
        56         5       -1.068173e+00
        57         5        8.811857e-01
        58         5        4.791574e-01
        59         5        1.753988e-01
        60         5        6.076111e-01
        61         5        1.651202e-01
        62         5        1.009129e+00
        63         5        8.569651e-01
        64         5        1.121416e-01
        65         5        1.802445e+00
        66         5       -4.278614e-01
        67         5        3.463456e-02
        68         5       -4.029782e-01
        69         5        1.166899e+00
        70         5       -4.025292e-01
        71         5       -3.357120e+00
        72         5       -6.142688e-01
        73         5        5.582717e-01
        74         5       -1.201091e+00
        75         5       -1.181205e+00
        76         5        4.163522e-01
        77         5       -7.143353e-01
        78         5        3.554241e-01
        79         5        5.398347e-01
        80         5        1.704193e-01
        81         5       -5.619403e-01
        82         5        1.345178e+00
        83         5        1.742733e+00
        84         5        2.231774e-02
        85         5        1.072794e+00
        86         5        5.533133e-01
        87         5       -2.667970e+00
        88         5       -1.258670e+00
        89         5        1.425613e+00
        90         5       -1.769810e-01
        91         5        1.036807e+00
        92         5       -8.421123e-02
        93         5       -1.876478e+00
        94         5        6.745238e-01
        95         5       -1.498591e-01
        96         5        6.115451e-01
        97         5       -1.537332e-01
        98         5       -6.614336e-01
        99         5        1.140161e+00
       100         5        1.308726e+00
;

param theta:=
    1        5.912356e-01
    2        1.612875e+00
    3       -6.998538e-01
    4        4.482472e-01
    5       -8.640862e-01
;
param X_true:=
    1       -8.391337e-01
    2        2.430658e-01
    3       -2.934265e+00
    4        1.212190e+00
    5        1.279438e+00
    6       -4.006585e+00
    7       -2.761324e-01
    8        2.939291e+00
    9        4.424699e+00
   10        2.076075e+00
   11       -1.532514e+00
   12       -1.087119e+00
   13        2.493705e+00
   14       -3.061255e+00
   15        1.819421e-01
   16        8.799215e-01
   17       -9.176724e-01
   18       -2.966792e+00
   19        1.434113e+00
   20        2.119843e+00
   21        2.448411e+00
   22       -1.086404e+00
   23        2.332883e+00
   24       -8.673018e-01
   25        7.933115e-01
   26        1.326948e+00
   27        2.135475e-01
   28        2.296146e+00
   29       -4.252562e+00
   30       -6.378280e-01
   31       -1.210264e+00
   32       -1.049366e+00
   33        7.175865e-01
   34       -1.347033e+00
   35       -1.344660e-01
   36       -8.312993e-01
   37       -4.380086e+00
   38        1.280519e+00
   39        1.347084e+00
   40       -3.812825e-01
   41        2.198972e+00
   42       -6.862827e-01
   43       -1.986919e+00
   44        2.117069e+00
   45        3.637867e+00
   46       -3.208638e+00
   47       -1.983659e-01
   48        2.329112e+00
   49       -3.731726e-01
   50       -5.218765e-01
   51        2.217673e+00
   52       -2.272763e+00
   53        1.029870e+00
   54        5.124950e-01
   55       -1.841379e+00
   56        1.265632e+00
   57        2.306291e+00
   58       -9.941337e-01
   59       -9.420616e-01
   60       -5.934575e-01
   61        8.298931e-01
   62        1.941070e-01
   63        5.655698e-02
   64       -2.003717e+00
   65        2.779001e-02
   66        9.134829e-01
   67       -9.474846e-01
   68       -1.631312e+00
   69       -4.989325e+00
   70       -7.069247e-01
   71        2.467784e+00
   72        2.490970e+00
   73       -7.655174e-01
   74        6.493945e-01
   75       -6.362330e-01
   76       -9.241837e-01
   77        6.573978e-02
   78        6.041985e-01
   79        1.007414e-01
   80       -3.344080e+00
   81        3.277606e+00
   82       -8.613350e-01
   83       -3.001269e+00
   84       -1.779184e+00
   85       -2.994057e+00
   86        1.749256e+00
   87        3.835518e+00
   88        3.053517e+00
   89       -1.670297e+00
   90        1.213664e+00
   91        4.524103e-01
   92       -1.471285e+00
   93        3.057836e+00
   94       -2.208770e+00
   95       -2.428610e+00
   96       -1.152171e+00
   97       -1.000842e+00
   98        5.395319e-01
   99        7.528620e-01
  100        3.570472e-01
;
param X:=
    1       -8.391337e-01
    2        2.430658e-01
    3       -2.934265e+00
    4        1.039944e+00
    5       -2.235965e-01
    6       -7.490767e-01
    7        7.507895e-01
    8       -1.041155e+00
    9        4.424699e+00
   10        5.321223e-01
   11       -1.330807e+00
   12       -1.087119e+00
   13        2.493705e+00
   14       -3.061255e+00
   15       -1.649261e+00
   16        8.799215e-01
   17       -6.352554e-01
   18        1.871665e-01
   19        8.709973e-01
   20        1.239908e+00
   21       -2.287601e-01
   22       -1.815006e+00
   23        2.332883e+00
   24       -8.673018e-01
   25       -6.771990e-01
   26        1.326948e+00
   27        2.135475e-01
   28        2.296146e+00
   29       -1.012980e+00
   30       -6.378280e-01
   31       -3.931097e-01
   32       -1.049366e+00
   33       -6.365917e-01
   34       -1.347033e+00
   35        3.973016e-01
   36        7.862760e-01
   37       -5.109283e-02
   38        1.534422e+00
   39       -1.137897e+00
   40       -1.532314e-01
   41       -2.157461e+00
   42       -4.864293e-01
   43       -4.947210e-01
   44        6.728840e-01
   45        1.135247e+00
   46        7.014844e-02
   47        1.278941e+00
   48       -4.338372e-01
   49       -1.851821e+00
   50       -6.618600e-01
   51       -1.614792e+00
   52       -2.272763e+00
   53       -2.185763e-01
   54       -7.193464e-01
   55        1.428487e+00
   56       -6.051320e-01
   57        9.764889e-01
   58       -9.941337e-01
   59       -9.420616e-01
   60        1.245753e-01
   61       -7.255429e-02
   62        9.639761e-01
   63        5.655698e-02
   64       -1.139770e-01
   65       -2.229448e-01
   66       -1.183626e+00
   67        1.168542e-01
   68       -1.631312e+00
   69       -4.989325e+00
   70       -7.069247e-01
   71        1.203489e+00
   72       -2.276658e-02
   73        2.545256e-01
   74        1.731215e+00
   75        1.352307e+00
   76        5.579631e-01
   77        8.204193e-01
   78       -1.535574e+00
   79        1.007414e-01
   80       -1.298689e+00
   81       -1.014578e+00
   82        1.162781e+00
   83       -3.001269e+00
   84       -1.121352e-01
   85       -3.992699e-01
   86       -1.149891e+00
   87       -1.741007e+00
   88       -9.792588e-01
   89        3.784600e-02
   90       -3.873594e-01
   91       -4.100217e-01
   92       -1.603172e-01
   93        1.448260e+00
   94        6.069814e-01
   95        1.253629e+00
   96       -1.038051e+00
   97       -7.147465e-01
   98        2.873542e-01
   99        7.528620e-01
  100       -7.406813e-01
;
param outliervec:=
    1    0
    2    0
    3    0
    4    1
    5    1
    6    1
    7    1
    8    1
    9    0
   10    1
   11    1
   12    0
   13    0
   14    0
   15    1
   16    0
   17    1
   18    1
   19    1
   20    1
   21    1
   22    1
   23    0
   24    0
   25    1
   26    0
   27    0
   28    0
   29    1
   30    0
   31    1
   32    0
   33    1
   34    0
   35    1
   36    1
   37    1
   38    1
   39    1
   40    1
   41    1
   42    1
   43    1
   44    1
   45    1
   46    1
   47    1
   48    1
   49    1
   50    1
   51    1
   52    0
   53    1
   54    1
   55    1
   56    1
   57    1
   58    0
   59    0
   60    1
   61    1
   62    1
   63    0
   64    1
   65    1
   66    1
   67    1
   68    0
   69    0
   70    0
   71    1
   72    1
   73    1
   74    1
   75    1
   76    1
   77    1
   78    1
   79    0
   80    1
   81    1
   82    1
   83    0
   84    1
   85    1
   86    1
   87    1
   88    1
   89    1
   90    1
   91    1
   92    1
   93    1
   94    1
   95    1
   96    1
   97    1
   98    1
   99    0
  100    1
;